(set-logic QF_S)
(declare-fun var0 () String)
(assert (RegexIn var0 (RegexConcat (RegexPlus (RegexPlus (Str2Reg "0"))) (RegexConcat (RegexPlus (RegexPlus (Str2Reg "11"))) (RegexConcat (RegexPlus (RegexUnion (Str2Reg "222") (Str2Reg "333"))) (RegexConcat (RegexUnion (RegexUnion (Str2Reg "4") (Str2Reg "5")) (RegexUnion (Str2Reg "666") (Str2Reg "777"))) (RegexConcat (RegexUnion (RegexUnion (Str2Reg "88") (Str2Reg "9")) (RegexUnion (Str2Reg "aa") (Str2Reg "bb"))) (RegexConcat (RegexUnion (RegexStar (Str2Reg "cc")) (RegexStar (Str2Reg "d"))) (RegexConcat (RegexUnion (RegexUnion (Str2Reg "ee") (Str2Reg "f")) (RegexUnion (Str2Reg "ggg") (Str2Reg "hh"))) (RegexConcat (RegexUnion (RegexPlus (Str2Reg "iii")) (RegexPlus (Str2Reg "jj"))) (RegexConcat (RegexPlus (RegexPlus (Str2Reg "k"))) (RegexConcat (RegexPlus (RegexStar (Str2Reg "lll"))) (RegexConcat (RegexUnion (RegexStar (Str2Reg "m")) (RegexStar (Str2Reg "nn"))) (RegexConcat (RegexStar (RegexStar (Str2Reg "o"))) (RegexConcat (RegexPlus (RegexPlus (Str2Reg "p"))) (RegexConcat (RegexPlus (RegexPlus (Str2Reg "qqq"))) (RegexConcat (RegexStar (RegexUnion (Str2Reg "rrr") (Str2Reg "sss"))) (RegexConcat (RegexPlus (RegexStar (Str2Reg "ttt"))) (RegexConcat (RegexStar (RegexUnion (Str2Reg "uu") (Str2Reg "vv"))) (RegexConcat (RegexStar (RegexPlus (Str2Reg "www"))) (RegexConcat (RegexUnion (RegexPlus (Str2Reg "x")) (RegexPlus (Str2Reg "yy"))) (RegexConcat (RegexStar (RegexPlus (Str2Reg "zzz"))) (RegexConcat (RegexUnion (RegexUnion (Str2Reg "AAA") (Str2Reg "B")) (RegexUnion (Str2Reg "CCC") (Str2Reg "DD"))) (RegexConcat (RegexStar (RegexUnion (Str2Reg "E") (Str2Reg "F"))) (RegexConcat (RegexStar (RegexUnion (Str2Reg "GG") (Str2Reg "H"))) (RegexConcat (RegexUnion (RegexPlus (Str2Reg "I")) (RegexPlus (Str2Reg "J"))) (RegexConcat (RegexUnion (RegexPlus (Str2Reg "KKK")) (RegexPlus (Str2Reg "LLL"))) (RegexConcat (RegexStar (RegexPlus (Str2Reg "M"))) (RegexConcat (RegexPlus (RegexPlus (Str2Reg "NN"))) (RegexConcat (RegexPlus (RegexStar (Str2Reg "OOO"))) (RegexConcat (RegexStar (RegexStar (Str2Reg "PPP"))) (RegexConcat (RegexPlus (RegexUnion (Str2Reg "Q") (Str2Reg "R"))) (RegexConcat (RegexStar (RegexUnion (Str2Reg "SS") (Str2Reg "T"))) (RegexConcat (RegexPlus (RegexStar (Str2Reg "UUU"))) (RegexConcat (RegexStar (RegexStar (Str2Reg "VV"))) (RegexConcat (RegexPlus (RegexStar (Str2Reg "WWW"))) (RegexConcat (RegexUnion (RegexPlus (Str2Reg "X")) (RegexPlus (Str2Reg "Y"))) (RegexConcat (RegexUnion (RegexStar (Str2Reg "Z")) (RegexStar (Str2Reg "!!"))) (RegexConcat (RegexUnion (RegexStar (Str2Reg "\"")) (RegexStar (Str2Reg "###"))) (RegexConcat (RegexStar (RegexUnion (Str2Reg "$$$") (Str2Reg "%"))) (RegexConcat (RegexStar (RegexPlus (Str2Reg "&"))) (RegexConcat (RegexUnion (RegexUnion (Str2Reg "'") (Str2Reg "(")) (RegexUnion (Str2Reg ")") (Str2Reg "**"))) (RegexConcat (RegexUnion (RegexStar (Str2Reg "+++")) (RegexStar (Str2Reg ",,"))) (RegexConcat (RegexUnion (RegexStar (Str2Reg "-")) (RegexStar (Str2Reg ".."))) (RegexConcat (RegexStar (RegexStar (Str2Reg "//"))) (RegexConcat (RegexPlus (RegexUnion (Str2Reg ":::") (Str2Reg ";;"))) (RegexConcat (RegexUnion (RegexPlus (Str2Reg "<<")) (RegexPlus (Str2Reg "="))) (RegexConcat (RegexPlus (RegexUnion (Str2Reg ">>>") (Str2Reg "?"))) (RegexConcat (RegexPlus (RegexUnion (Str2Reg "@@@") (Str2Reg "["))) (RegexConcat (RegexPlus (RegexPlus (Str2Reg "\\\\\\"))) (RegexConcat (RegexStar (RegexStar (Str2Reg "]"))) (RegexConcat (RegexUnion (RegexStar (Str2Reg "^^^")) (RegexStar (Str2Reg "_"))) (RegexConcat (RegexStar (RegexUnion (Str2Reg "```") (Str2Reg "{{"))) (RegexConcat (RegexUnion (RegexUnion (Str2Reg "|") (Str2Reg "}}")) (RegexUnion (Str2Reg "~~~") (Str2Reg "00"))) (RegexConcat (RegexStar (RegexStar (Str2Reg "111"))) (RegexConcat (RegexUnion (RegexUnion (Str2Reg "22") (Str2Reg "333")) (RegexUnion (Str2Reg "4") (Str2Reg "555"))) (RegexConcat (RegexStar (RegexStar (Str2Reg "6"))) (RegexConcat (RegexPlus (RegexPlus (Str2Reg "777"))) (RegexConcat (RegexUnion (RegexPlus (Str2Reg "8")) (RegexPlus (Str2Reg "999"))) (RegexConcat (RegexStar (RegexUnion (Str2Reg "aa") (Str2Reg "b"))) (RegexConcat (RegexPlus (RegexStar (Str2Reg "ccc"))) (RegexConcat (RegexUnion (RegexUnion (Str2Reg "ddd") (Str2Reg "eee")) (RegexUnion (Str2Reg "f") (Str2Reg "ggg"))) (RegexConcat (RegexUnion (RegexPlus (Str2Reg "hh")) (RegexPlus (Str2Reg "i"))) (RegexConcat (RegexPlus (RegexUnion (Str2Reg "jj") (Str2Reg "k"))) (RegexConcat (RegexStar (RegexPlus (Str2Reg "ll"))) (RegexConcat (RegexUnion (RegexUnion (Str2Reg "mmm") (Str2Reg "n")) (RegexUnion (Str2Reg "oo") (Str2Reg "pp"))) (RegexConcat (RegexPlus (RegexUnion (Str2Reg "qq") (Str2Reg "rr"))) (RegexConcat (RegexStar (RegexPlus (Str2Reg "ss"))) (RegexConcat (RegexPlus (RegexPlus (Str2Reg "ttt"))) (RegexConcat (RegexStar (RegexStar (Str2Reg "u"))) (RegexConcat (RegexUnion (RegexUnion (Str2Reg "vv") (Str2Reg "w")) (RegexUnion (Str2Reg "xxx") (Str2Reg "yy"))) (RegexConcat (RegexPlus (RegexPlus (Str2Reg "z"))) (RegexConcat (RegexPlus (RegexPlus (Str2Reg "A"))) (RegexConcat (RegexUnion (RegexStar (Str2Reg "B")) (RegexStar (Str2Reg "CC"))) (RegexConcat (RegexUnion (RegexUnion (Str2Reg "DDD") (Str2Reg "EEE")) (RegexUnion (Str2Reg "FFF") (Str2Reg "G"))) (RegexConcat (RegexStar (RegexStar (Str2Reg "HH"))) (RegexConcat (RegexStar (RegexPlus (Str2Reg "III"))) (RegexConcat (RegexPlus (RegexStar (Str2Reg "JJ"))) (RegexConcat (RegexStar (RegexStar (Str2Reg "K"))) (RegexConcat (RegexStar (RegexPlus (Str2Reg "L"))) (RegexConcat (RegexUnion (RegexStar (Str2Reg "MMM")) (RegexStar (Str2Reg "NN"))) (RegexConcat (RegexStar (RegexStar (Str2Reg "OOO"))) (RegexConcat (RegexPlus (RegexStar (Str2Reg "P"))) (RegexConcat (RegexUnion (RegexUnion (Str2Reg "Q") (Str2Reg "RRR")) (RegexUnion (Str2Reg "S") (Str2Reg "TTT"))) (RegexConcat (RegexUnion (RegexPlus (Str2Reg "U")) (RegexPlus (Str2Reg "VV"))) (RegexConcat (RegexPlus (RegexPlus (Str2Reg "WW"))) (RegexConcat (RegexPlus (RegexUnion (Str2Reg "XXX") (Str2Reg "Y"))) (RegexConcat (RegexPlus (RegexPlus (Str2Reg "ZZ"))) (RegexConcat (RegexStar (RegexStar (Str2Reg "!!"))) (RegexConcat (RegexStar (RegexPlus (Str2Reg "\"\"\""))) (RegexConcat (RegexUnion (RegexUnion (Str2Reg "###") (Str2Reg "$$$")) (RegexUnion (Str2Reg "%") (Str2Reg "&&&"))) (RegexConcat (RegexStar (RegexStar (Str2Reg "'"))) (RegexUnion (RegexPlus (Str2Reg "((")) (RegexPlus (Str2Reg ")))")))))))))))))))))))))))))))))))))))))))))))))))))))))))))))))))))))))))))))))))))))))))))))))))
(assert (not (RegexIn var0 (RegexConcat (RegexStar (RegexUnion (Str2Reg "00") (Str2Reg "1"))) (RegexConcat (RegexPlus (RegexStar (Str2Reg "2"))) (RegexConcat (RegexPlus (RegexUnion (Str2Reg "333") (Str2Reg "4"))) (RegexConcat (RegexStar (RegexPlus (Str2Reg "555"))) (RegexConcat (RegexUnion (RegexPlus (Str2Reg "666")) (RegexPlus (Str2Reg "77"))) (RegexConcat (RegexUnion (RegexPlus (Str2Reg "88")) (RegexPlus (Str2Reg "999"))) (RegexConcat (RegexUnion (RegexStar (Str2Reg "a")) (RegexStar (Str2Reg "b"))) (RegexConcat (RegexPlus (RegexPlus (Str2Reg "ccc"))) (RegexConcat (RegexPlus (RegexPlus (Str2Reg "dd"))) (RegexConcat (RegexStar (RegexStar (Str2Reg "ee"))) (RegexConcat (RegexUnion (RegexUnion (Str2Reg "fff") (Str2Reg "gg")) (RegexUnion (Str2Reg "hh") (Str2Reg "i"))) (RegexConcat (RegexStar (RegexStar (Str2Reg "jjj"))) (RegexConcat (RegexStar (RegexUnion (Str2Reg "kk") (Str2Reg "l"))) (RegexConcat (RegexPlus (RegexUnion (Str2Reg "mm") (Str2Reg "n"))) (RegexConcat (RegexPlus (RegexStar (Str2Reg "oo"))) (RegexConcat (RegexUnion (RegexUnion (Str2Reg "p") (Str2Reg "qqq")) (RegexUnion (Str2Reg "r") (Str2Reg "sss"))) (RegexConcat (RegexPlus (RegexPlus (Str2Reg "tt"))) (RegexConcat (RegexStar (RegexPlus (Str2Reg "uu"))) (RegexConcat (RegexStar (RegexUnion (Str2Reg "vvv") (Str2Reg "www"))) (RegexConcat (RegexStar (RegexUnion (Str2Reg "x") (Str2Reg "y"))) (RegexConcat (RegexPlus (RegexStar (Str2Reg "zzz"))) (RegexConcat (RegexStar (RegexStar (Str2Reg "AAA"))) (RegexConcat (RegexUnion (RegexStar (Str2Reg "BBB")) (RegexStar (Str2Reg "C"))) (RegexConcat (RegexUnion (RegexUnion (Str2Reg "DD") (Str2Reg "EE")) (RegexUnion (Str2Reg "FFF") (Str2Reg "G"))) (RegexConcat (RegexUnion (RegexStar (Str2Reg "HH")) (RegexStar (Str2Reg "III"))) (RegexConcat (RegexStar (RegexPlus (Str2Reg "JJ"))) (RegexConcat (RegexPlus (RegexUnion (Str2Reg "KKK") (Str2Reg "LLL"))) (RegexConcat (RegexStar (RegexUnion (Str2Reg "MM") (Str2Reg "NN"))) (RegexConcat (RegexStar (RegexUnion (Str2Reg "O") (Str2Reg "PPP"))) (RegexConcat (RegexUnion (RegexUnion (Str2Reg "QQQ") (Str2Reg "R")) (RegexUnion (Str2Reg "SS") (Str2Reg "TTT"))) (RegexConcat (RegexUnion (RegexPlus (Str2Reg "U")) (RegexPlus (Str2Reg "V"))) (RegexConcat (RegexUnion (RegexStar (Str2Reg "W")) (RegexStar (Str2Reg "XX"))) (RegexConcat (RegexPlus (RegexStar (Str2Reg "YY"))) (RegexConcat (RegexPlus (RegexPlus (Str2Reg "ZZZ"))) (RegexConcat (RegexStar (RegexUnion (Str2Reg "!") (Str2Reg "\""))) (RegexConcat (RegexUnion (RegexStar (Str2Reg "##")) (RegexStar (Str2Reg "$$$"))) (RegexConcat (RegexPlus (RegexStar (Str2Reg "%%%"))) (RegexConcat (RegexPlus (RegexUnion (Str2Reg "&&") (Str2Reg "''"))) (RegexConcat (RegexPlus (RegexStar (Str2Reg "("))) (RegexConcat (RegexUnion (RegexStar (Str2Reg ")))")) (RegexStar (Str2Reg "**"))) (RegexConcat (RegexUnion (RegexUnion (Str2Reg "++") (Str2Reg ",,")) (RegexUnion (Str2Reg "---") (Str2Reg ".."))) (RegexConcat (RegexStar (RegexStar (Str2Reg "//"))) (RegexConcat (RegexPlus (RegexPlus (Str2Reg ":::"))) (RegexConcat (RegexUnion (RegexPlus (Str2Reg ";;")) (RegexPlus (Str2Reg "<"))) (RegexConcat (RegexUnion (RegexPlus (Str2Reg "==")) (RegexPlus (Str2Reg ">>>"))) (RegexConcat (RegexPlus (RegexUnion (Str2Reg "??") (Str2Reg "@@@"))) (RegexConcat (RegexStar (RegexUnion (Str2Reg "[[") (Str2Reg "\\\\\\"))) (RegexConcat (RegexUnion (RegexUnion (Str2Reg "]]") (Str2Reg "^^^")) (RegexUnion (Str2Reg "___") (Str2Reg "```"))) (RegexConcat (RegexPlus (RegexUnion (Str2Reg "{{") (Str2Reg "||"))) (RegexConcat (RegexStar (RegexUnion (Str2Reg "}}}") (Str2Reg "~~"))) (RegexConcat (RegexStar (RegexUnion (Str2Reg "0") (Str2Reg "111"))) (RegexConcat (RegexStar (RegexUnion (Str2Reg "22") (Str2Reg "333"))) (RegexConcat (RegexStar (RegexStar (Str2Reg "44"))) (RegexConcat (RegexUnion (RegexStar (Str2Reg "5")) (RegexStar (Str2Reg "66"))) (RegexConcat (RegexUnion (RegexUnion (Str2Reg "7") (Str2Reg "888")) (RegexUnion (Str2Reg "999") (Str2Reg "a"))) (RegexConcat (RegexUnion (RegexUnion (Str2Reg "bb") (Str2Reg "ccc")) (RegexUnion (Str2Reg "d") (Str2Reg "e"))) (RegexConcat (RegexPlus (RegexUnion (Str2Reg "fff") (Str2Reg "gg"))) (RegexConcat (RegexUnion (RegexPlus (Str2Reg "hhh")) (RegexPlus (Str2Reg "i"))) (RegexConcat (RegexPlus (RegexPlus (Str2Reg "jj"))) (RegexConcat (RegexPlus (RegexPlus (Str2Reg "kkk"))) (RegexConcat (RegexPlus (RegexStar (Str2Reg "l"))) (RegexConcat (RegexPlus (RegexPlus (Str2Reg "mmm"))) (RegexConcat (RegexUnion (RegexStar (Str2Reg "n")) (RegexStar (Str2Reg "oo"))) (RegexConcat (RegexStar (RegexUnion (Str2Reg "ppp") (Str2Reg "qq"))) (RegexConcat (RegexStar (RegexStar (Str2Reg "rrr"))) (RegexConcat (RegexUnion (RegexStar (Str2Reg "ss")) (RegexStar (Str2Reg "tt"))) (RegexConcat (RegexUnion (RegexStar (Str2Reg "uu")) (RegexStar (Str2Reg "vv"))) (RegexConcat (RegexUnion (RegexStar (Str2Reg "ww")) (RegexStar (Str2Reg "xxx"))) (RegexConcat (RegexStar (RegexUnion (Str2Reg "yy") (Str2Reg "zzz"))) (RegexConcat (RegexPlus (RegexStar (Str2Reg "AA"))) (RegexConcat (RegexPlus (RegexUnion (Str2Reg "B") (Str2Reg "C"))) (RegexConcat (RegexStar (RegexStar (Str2Reg "DDD"))) (RegexConcat (RegexUnion (RegexUnion (Str2Reg "E") (Str2Reg "FF")) (RegexUnion (Str2Reg "GG") (Str2Reg "HHH"))) (RegexConcat (RegexUnion (RegexStar (Str2Reg "III")) (RegexStar (Str2Reg "JJ"))) (RegexConcat (RegexUnion (RegexStar (Str2Reg "KK")) (RegexStar (Str2Reg "LL"))) (RegexConcat (RegexUnion (RegexPlus (Str2Reg "M")) (RegexPlus (Str2Reg "N"))) (RegexConcat (RegexUnion (RegexStar (Str2Reg "OOO")) (RegexStar (Str2Reg "P"))) (RegexConcat (RegexUnion (RegexUnion (Str2Reg "QQ") (Str2Reg "RRR")) (RegexUnion (Str2Reg "S") (Str2Reg "T"))) (RegexConcat (RegexUnion (RegexStar (Str2Reg "UU")) (RegexStar (Str2Reg "VVV"))) (RegexConcat (RegexUnion (RegexPlus (Str2Reg "W")) (RegexPlus (Str2Reg "XX"))) (RegexConcat (RegexStar (RegexPlus (Str2Reg "YY"))) (RegexConcat (RegexStar (RegexUnion (Str2Reg "ZZ") (Str2Reg "!!!"))) (RegexConcat (RegexStar (RegexStar (Str2Reg "\""))) (RegexConcat (RegexStar (RegexUnion (Str2Reg "##") (Str2Reg "$$$"))) (RegexConcat (RegexUnion (RegexUnion (Str2Reg "%") (Str2Reg "&&&")) (RegexUnion (Str2Reg "'") (Str2Reg "("))) (RegexConcat (RegexPlus (RegexUnion (Str2Reg ")") (Str2Reg "**"))) (RegexConcat (RegexUnion (RegexPlus (Str2Reg "++")) (RegexPlus (Str2Reg ",,,"))) (RegexConcat (RegexUnion (RegexStar (Str2Reg "--")) (RegexStar (Str2Reg "."))) (RegexConcat (RegexStar (RegexPlus (Str2Reg "///"))) (RegexConcat (RegexStar (RegexStar (Str2Reg ":::"))) (RegexUnion (RegexPlus (Str2Reg ";;;")) (RegexPlus (Str2Reg "<"))))))))))))))))))))))))))))))))))))))))))))))))))))))))))))))))))))))))))))))))))))))))))))))))
(check-sat)